experiment/data/hgs-res/Vrp-Set-CMT-n121/Vrp-Set-CMT-n121-hgs/1.hgs1.vrp
NAME : 1
COMMENT : CVRP Instance
TYPE : CVRP
DIMENSION : 121
EDGE_WEIGHT_TYPE : EUC_2D
CAPACITY : 200
NODE_COORD_SECTION
1	10.0	45.0
2	25.0	1.0
3	25.0	3.0
4	31.0	5.0
5	32.0	5.0
6	31.0	7.0
7	32.0	9.0
8	34.0	9.0
9	46.0	9.0
10	35.0	7.0
11	34.0	6.0
12	35.0	5.0
13	47.0	6.0
14	40.0	5.0
15	39.0	3.0
16	36.0	3.0
17	73.0	6.0
18	73.0	8.0
19	24.0	36.0
20	76.0	6.0
21	76.0	10.0
22	76.0	13.0
23	78.0	3.0
24	78.0	9.0
25	79.0	3.0
26	79.0	5.0
27	79.0	11.0
28	82.0	3.0
29	82.0	7.0
30	90.0	15.0
31	84.0	3.0
32	84.0	5.0
33	84.0	9.0
34	85.0	1.0
35	87.0	5.0
36	85.0	8.0
37	87.0	7.0
38	86.0	41.0
39	86.0	44.0
40	86.0	46.0
41	85.0	55.0
42	89.0	43.0
43	89.0	46.0
44	89.0	52.0
45	92.0	42.0
46	92.0	52.0
47	94.0	42.0
48	94.0	44.0
49	94.0	48.0
50	96.0	42.0
51	99.0	46.0
52	99.0	50.0
53	83.0	80.0
54	83.0	83.0
55	85.0	81.0
56	85.0	85.0
57	85.0	89.0
58	87.0	80.0
59	87.0	86.0
60	90.0	77.0
61	90.0	88.0
62	93.0	82.0
63	93.0	84.0
64	93.0	89.0
65	94.0	86.0
66	95.0	80.0
67	99.0	89.0
68	37.0	83.0
69	50.0	80.0
70	35.0	85.0
71	35.0	87.0
72	44.0	86.0
73	46.0	89.0
74	46.0	83.0
75	46.0	87.0
76	46.0	89.0
77	48.0	83.0
78	50.0	85.0
79	50.0	88.0
80	54.0	86.0
81	54.0	90.0
82	10.0	35.0
83	10.0	40.0
84	18.0	30.0
85	17.0	35.0
86	16.0	38.0
87	14.0	40.0
88	15.0	42.0
89	11.0	42.0
90	18.0	40.0
91	21.0	39.0
92	20.0	40.0
93	18.0	41.0
94	20.0	44.0
95	22.0	44.0
96	16.0	45.0
97	20.0	45.0
98	25.0	45.0
99	30.0	55.0
100	20.0	50.0
101	22.0	51.0
102	18.0	49.0
103	16.0	48.0
104	20.0	55.0
105	18.0	53.0
106	14.0	50.0
107	15.0	51.0
108	16.0	54.0
109	28.0	33.0
110	33.0	38.0
111	30.0	50.0
112	13.0	40.0
113	15.0	36.0
114	18.0	31.0
115	25.0	37.0
116	30.0	46.0
117	25.0	52.0
118	16.0	33.0
119	25.0	35.0
120	5.0	40.0
121	5.0	50.0
DEMAND_SECTION
1	0
2	25
3	7
4	13
5	6
6	14
7	5
8	11
9	19
10	5
11	15
12	15
13	17
14	13
15	12
16	18
17	13
18	18
19	12
20	17
21	4
22	7
23	12
24	13
25	8
26	16
27	15
28	6
29	5
30	9
31	11
32	10
33	3
34	7
35	2
36	4
37	4
38	18
39	14
40	12
41	17
42	20
43	14
44	16
45	10
46	9
47	11
48	7
49	13
50	5
51	4
52	21
53	13
54	11
55	12
56	14
57	10
58	8
59	16
60	19
61	5
62	17
63	7
64	16
65	14
66	17
67	13
68	17
69	13
70	14
71	16
72	7
73	13
74	9
75	11
76	35
77	5
78	28
79	7
80	3
81	10
82	7
83	12
84	11
85	10
86	8
87	11
88	21
89	4
90	15
91	16
92	4
93	16
94	7
95	10
96	9
97	11
98	17
99	12
100	11
101	7
102	9
103	11
104	12
105	7
106	8
107	6
108	5
109	12
110	13
111	7
112	7
113	8
114	11
115	13
116	11
117	10
118	7
119	4
120	20
121	13
DEPOT_SECTION
1
-1
EOF
