experiment/data/hgs-res/Vrp-Set-CMT-n121/Vrp-Set-CMT-n121-hgs/1.hgs1.tour
Route #1: 88 2 1 3 4 5 6 7 9 10 11 15 14 13 12 8
Route #2: 82 111 86 85 89 91 90 114 18 118 108 83 113 117 84 112 81 119
Route #3: 109 21 20 23 26 28 32 35 29 36 34 31 30 33 27 24 22 25 19 16 17
Route #4: 40 43 45 48 51 50 49 47 46 44 41 42 39 38 37 95
Route #5: 87 92 93 96 94 97 115 110 98 116 103 104 99 101 102 105 120
Route #6: 100 53 55 58 56 60 63 66 64 62 61 65 59 57 54 52
Route #7: 107 67 69 70 71 74 72 75 78 80 79 77 68 76 73 106
Cost 1042.12
